p cnf 106 282
-102 -103 -105 0
-31 18 82 0
-69 -70 -71 0
7 25 -81 0
-98 -99 -103 0
-20 26 73 0
15 -16 44 0
-37 38 55 0
53 -54 63 0
6 -32 77 0
-76 -77 -92 0
-5 6 39 0
15 -21 79 0
-96 -97 -102 0
92 -93 100 0
-11 12 42 0
27 -28 50 0
22 -27 88 0
45 46 -59 0
-7 -8 -40 0
-67 -68 -70 0
13 -4 84 0
-92 93 100 0
1 2 -37 0
-2 12 72 0
22 27 -88 0
-33 -35 -80 0
100 -101 104 0
-34 23 76 0
3 -4 38 0
33 -34 53 0
-7 25 81 0
-6 32 77 0
-51 52 62 0
-90 -91 -99 0
49 50 -61 0
-80 -81 -94 0
-55 -56 -64 0
-24 -29 -74 0
-8 1 89 0
86 87 -97 0
-53 54 63 0
13 14 -43 0
-3 -4 -38 0
-72 -73 -90 0
-20 -26 -73 0
55 56 -64 0
-72 73 90 0
-15 -16 -44 0
69 -70 71 0
21 -22 47 0
-3 28 83 0
41 42 -57 0
-41 -42 -57 0
23 24 -48 0
34 23 -76 0
-9 -11 -85 0
-71 -106 0
59 60 -66 0
-98 99 103 0
84 -85 96 0
-59 -60 -66 0
-57 58 65 0
19 -20 46 0
67 -68 70 0
-17 14 87 0
-49 50 61 0
23 -24 48 0
-94 95 101 0
29 -30 51 0
36 5 -75 0
102 103 -105 0
15 16 -44 0
51 -52 62 0
-61 -62 -67 0
-53 -54 -63 0
45 -46 59 0
-100 101 104 0
-19 20 46 0
33 35 -80 0
-19 -20 -46 0
-3 -28 -83 0
31 -32 52 0
100 101 -104 0
86 -87 97 0
-57 -58 -65 0
98 -99 103 0
-9 -10 -41 0
35 -36 54 0
-51 -52 -62 0
7 -25 81 0
88 -89 98 0
-36 5 75 0
5 6 -39 0
19 20 -46 0
49 -50 61 0
43 -44 58 0
-2 -12 -72 0
43 44 -58 0
-22 -27 -88 0
11 -12 42 0
-15 21 79 0
-5 -6 -39 0
27 28 -50 0
-34 -23 -76 0
-82 83 95 0
-13 -14 -43 0
65 -66 69 0
-80 81 94 0
96 -97 102 0
90 -91 99 0
82 83 -95 0
-13 -4 -84 0
-67 68 70 0
82 -83 95 0
11 12 -42 0
2 -12 72 0
-100 -101 -104 0
-25 26 49 0
67 68 -70 0
-78 79 93 0
-13 14 43 0
-9 11 85 0
37 -38 55 0
47 -48 60 0
96 97 -102 0
-104 105 106 0
-25 -26 -49 0
-84 -85 -96 0
-15 -21 -79 0
9 -11 85 0
17 -14 87 0
-86 -87 -97 0
-31 -18 -82 0
13 4 -84 0
94 -95 101 0
-7 8 40 0
25 -26 49 0
-29 -30 -51 0
72 -73 90 0
-30 -16 -78 0
-8 -1 -89 0
-96 97 102 0
3 -28 83 0
61 -62 67 0
-13 4 84 0
-102 103 105 0
63 -64 68 0
104 -105 106 0
98 99 -103 0
9 11 -85 0
-104 -105 -106 0
78 79 -93 0
61 62 -67 0
36 -5 75 0
80 -81 94 0
-15 16 44 0
35 36 -54 0
1 -2 37 0
102 -103 105 0
-37 -38 -55 0
5 -6 39 0
55 -56 64 0
57 -58 65 0
-29 30 51 0
76 -77 92 0
39 40 -56 0
51 52 -62 0
24 29 -74 0
-17 18 45 0
-55 56 64 0
-6 -32 -77 0
41 -42 57 0
30 16 -78 0
-23 24 48 0
53 54 -63 0
19 -10 86 0
7 -8 40 0
30 -16 78 0
-35 36 54 0
3 28 -83 0
57 58 -65 0
-27 -28 -50 0
-33 34 53 0
69 70 -71 0
-63 64 68 0
-19 -10 -86 0
-92 -93 -100 0
13 -14 43 0
-31 -32 -52 0
-3 4 38 0
-47 -48 -60 0
3 4 -38 0
31 18 -82 0
59 -60 66 0
-88 89 98 0
74 -75 91 0
76 77 -92 0
33 -35 80 0
-39 -40 -56 0
24 -29 74 0
39 -40 56 0
-78 -79 -93 0
-33 -34 -53 0
-35 -36 -54 0
-23 -24 -48 0
19 10 -86 0
6 32 -77 0
74 75 -91 0
-88 -89 -98 0
17 14 -87 0
-41 42 57 0
94 95 -101 0
80 81 -94 0
-84 85 96 0
-94 -95 -101 0
29 30 -51 0
20 -26 73 0
-76 77 92 0
-21 -22 -47 0
17 18 -45 0
-47 48 60 0
9 -10 41 0
-11 -12 -42 0
84 85 -96 0
-30 16 78 0
-27 28 50 0
34 -23 76 0
31 32 -52 0
-86 87 97 0
-9 10 41 0
25 26 -49 0
-24 29 74 0
8 -1 89 0
17 -18 45 0
9 10 -41 0
47 48 -60 0
31 -18 82 0
104 105 -106 0
-22 27 88 0
90 91 -99 0
-65 -66 -69 0
7 8 -40 0
-90 91 99 0
-59 60 66 0
-1 2 37 0
-82 -83 -95 0
92 93 -100 0
-17 -14 -87 0
-63 -64 -68 0
-19 10 86 0
88 89 -98 0
-43 -44 -58 0
2 12 -72 0
72 73 -90 0
33 34 -53 0
-65 66 69 0
37 38 -55 0
21 22 -47 0
-74 -75 -91 0
-74 75 91 0
-49 -50 -61 0
20 26 -73 0
15 21 -79 0
-7 -25 -81 0
65 66 -69 0
-45 -46 -59 0
-61 62 67 0
-45 46 59 0
78 -79 93 0
-33 35 80 0
71 106 0
8 1 -89 0
-31 32 52 0
-39 40 56 0
63 64 -68 0
-17 -18 -45 0
-1 -2 -37 0
-21 22 47 0
-43 44 58 0
-69 70 71 0
-36 -5 -75 0
